13
0 11 13 8 20 18 1 1 2 4 9 18 12
11 0 11 3 1 6 6 6 5 6 5 4 7
13 16 0 12 16 15 8 5 18 14 14 9 18
1 18 19 0 10 13 2 15 2 1 9 9 19
12 2 3 20 0 1 2 12 20 3 18 7 10
1 17 6 17 18 0 13 1 5 8 4 10 14
11 18 3 5 13 17 0 15 1 1 10 19 16
12 4 19 8 7 19 15 0 1 15 1 9 2
11 9 3 8 14 7 18 11 0 2 16 10 17
2 11 9 7 1 20 17 1 12 0 4 2 6
3 15 12 15 4 11 15 18 9 5 0 17 19
16 1 13 14 9 16 16 14 7 18 7 0 5
13 16 19 15 12 6 7 14 12 19 8 10 0